robust/generate/spp_dkp_Lefebvre_et_al_2026/src/shortest_path_6_3.kp
45
116

[4.78 2.66 1.36 0.37 2.15 2.29 0.23 0.79 0.56 3.03 4.14 3.14 4.79 2.27 2.99 1.37 4.72 3.25 2.13 1.4 2.46 0.54 1.1 2.31]

[95 88 12 76 14 58 23 38 32 19 93 67 57 55 67 49 41 8 58 96 3 73 91 73]
