robust/generate/spp_dkp_Lefebvre_et_al_2026/src/shortest_path_6_3.lp
\ Model sp_6_3
\ LP format - for model browsing. Use MPS format to capture full model detail.
\ Signature: 0x1a3fed327f855427
Minimize
  35 y[0,1] + 28.3 y[0,2] + 51.79 y[0,3] + 26.25 y[0,4] + 51.09 y[0,5]
   + 35 y[1,0] + 52.35 y[1,2] + 35.51 y[1,3] + 28.3 y[2,0] + 52.35 y[2,1]
   + 48.84 y[2,3] + 23.02 y[2,4] + 25.63 y[2,5] + 51.79 y[3,0]
   + 35.51 y[3,1] + 48.84 y[3,2] + 43.68 y[3,5] + 26.25 y[4,0]
   + 23.02 y[4,2] + 47.68 y[4,5] + 51.09 y[5,0] + 25.63 y[5,2]
   + 43.68 y[5,3] + 47.68 y[5,4] + 3.5 r[0,1] + 2.83 r[0,2] + 5.179 r[0,3]
   + 2.625 r[0,4] + 5.109 r[0,5] + 3.5 r[1,0] + 5.235 r[1,2] + 3.551 r[1,3]
   + 2.83 r[2,0] + 5.235 r[2,1] + 4.884 r[2,3] + 2.302 r[2,4]
   + 2.563 r[2,5] + 5.179 r[3,0] + 3.551 r[3,1] + 4.884 r[3,2]
   + 4.368 r[3,5] + 2.625 r[4,0] + 2.302 r[4,2] + 4.768 r[4,5]
   + 5.109 r[5,0] + 2.563 r[5,2] + 4.368 r[5,3] + 4.768 r[5,4]
Subject To
 flow_cons_inner_nodes[0]: - y[0,1] - y[0,2] - y[0,3] - y[0,4] - y[0,5]
   + y[1,0] + y[2,0] + y[3,0] + y[4,0] + y[5,0] = 0
 flow_cons_inner_nodes[1]: y[0,1] - y[1,0] - y[1,2] - y[1,3] + y[2,1]
   + y[3,1] = 0
 flow_cons_inner_nodes[2]: y[0,2] + y[1,2] - y[2,0] - y[2,1] - y[2,3]
   - y[2,4] - y[2,5] + y[3,2] + y[4,2] + y[5,2] = 0
 flow_cons_inner_nodes[5]: y[0,5] + y[2,5] + y[3,5] + y[4,5] - y[5,0]
   - y[5,2] - y[5,3] - y[5,4] = 0
 flow_cons_source: - y[0,3] - y[1,3] - y[2,3] + y[3,0] + y[3,1] + y[3,2]
   + y[3,5] - y[5,3] = 1
 flow_cons_target: y[0,4] + y[2,4] - y[4,0] - y[4,2] - y[4,5] + y[5,4] = 1
 primal_lower: - 4.78 y[0,1] - 2.66 y[0,2] - 1.36 y[0,3] - 0.37 y[0,4]
   - 2.15 y[0,5] - 2.29 y[1,0] - 0.23 y[1,2] - 0.79 y[1,3] - 0.56 y[2,0]
   - 3.03 y[2,1] - 4.14 y[2,3] - 3.14 y[2,4] - 4.79 y[2,5] - 2.27 y[3,0]
   - 2.99 y[3,1] - 1.37 y[3,2] - 4.72 y[3,5] - 3.25 y[4,0] - 2.13 y[4,2]
   - 1.4 y[4,5] - 2.46 y[5,0] - 0.54 y[5,2] - 1.1 y[5,3] - 2.31 y[5,4]
   + 95 u[0,1] + 88 u[0,2] + 12 u[0,3] + 76 u[0,4] + 14 u[0,5] + 58 u[1,0]
   + 23 u[1,2] + 38 u[1,3] + 32 u[2,0] + 19 u[2,1] + 93 u[2,3] + 67 u[2,4]
   + 57 u[2,5] + 55 u[3,0] + 67 u[3,1] + 49 u[3,2] + 41 u[3,5] + 8 u[4,0]
   + 58 u[4,2] + 96 u[4,5] + 3 u[5,0] + 73 u[5,2] + 91 u[5,3] + 73 u[5,4]
   <= 116
 mccormick1[0,1]: - u[0,1] + r[0,1] <= 0
 mccormick1[0,2]: - u[0,2] + r[0,2] <= 0
 mccormick1[0,3]: - u[0,3] + r[0,3] <= 0
 mccormick1[0,4]: - u[0,4] + r[0,4] <= 0
 mccormick1[0,5]: - u[0,5] + r[0,5] <= 0
 mccormick1[1,0]: - u[1,0] + r[1,0] <= 0
 mccormick1[1,2]: - u[1,2] + r[1,2] <= 0
 mccormick1[1,3]: - u[1,3] + r[1,3] <= 0
 mccormick1[2,0]: - u[2,0] + r[2,0] <= 0
 mccormick1[2,1]: - u[2,1] + r[2,1] <= 0
 mccormick1[2,3]: - u[2,3] + r[2,3] <= 0
 mccormick1[2,4]: - u[2,4] + r[2,4] <= 0
 mccormick1[2,5]: - u[2,5] + r[2,5] <= 0
 mccormick1[3,0]: - u[3,0] + r[3,0] <= 0
 mccormick1[3,1]: - u[3,1] + r[3,1] <= 0
 mccormick1[3,2]: - u[3,2] + r[3,2] <= 0
 mccormick1[3,5]: - u[3,5] + r[3,5] <= 0
 mccormick1[4,0]: - u[4,0] + r[4,0] <= 0
 mccormick1[4,2]: - u[4,2] + r[4,2] <= 0
 mccormick1[4,5]: - u[4,5] + r[4,5] <= 0
 mccormick1[5,0]: - u[5,0] + r[5,0] <= 0
 mccormick1[5,2]: - u[5,2] + r[5,2] <= 0
 mccormick1[5,3]: - u[5,3] + r[5,3] <= 0
 mccormick1[5,4]: - u[5,4] + r[5,4] <= 0
 mccormick2[0,1]: - y[0,1] + r[0,1] <= 0
 mccormick2[0,2]: - y[0,2] + r[0,2] <= 0
 mccormick2[0,3]: - y[0,3] + r[0,3] <= 0
 mccormick2[0,4]: - y[0,4] + r[0,4] <= 0
 mccormick2[0,5]: - y[0,5] + r[0,5] <= 0
 mccormick2[1,0]: - y[1,0] + r[1,0] <= 0
 mccormick2[1,2]: - y[1,2] + r[1,2] <= 0
 mccormick2[1,3]: - y[1,3] + r[1,3] <= 0
 mccormick2[2,0]: - y[2,0] + r[2,0] <= 0
 mccormick2[2,1]: - y[2,1] + r[2,1] <= 0
 mccormick2[2,3]: - y[2,3] + r[2,3] <= 0
 mccormick2[2,4]: - y[2,4] + r[2,4] <= 0
 mccormick2[2,5]: - y[2,5] + r[2,5] <= 0
 mccormick2[3,0]: - y[3,0] + r[3,0] <= 0
 mccormick2[3,1]: - y[3,1] + r[3,1] <= 0
 mccormick2[3,2]: - y[3,2] + r[3,2] <= 0
 mccormick2[3,5]: - y[3,5] + r[3,5] <= 0
 mccormick2[4,0]: - y[4,0] + r[4,0] <= 0
 mccormick2[4,2]: - y[4,2] + r[4,2] <= 0
 mccormick2[4,5]: - y[4,5] + r[4,5] <= 0
 mccormick2[5,0]: - y[5,0] + r[5,0] <= 0
 mccormick2[5,2]: - y[5,2] + r[5,2] <= 0
 mccormick2[5,3]: - y[5,3] + r[5,3] <= 0
 mccormick2[5,4]: - y[5,4] + r[5,4] <= 0
 mccormick3[0,1]: - y[0,1] - u[0,1] + r[0,1] >= -1
 mccormick3[0,2]: - y[0,2] - u[0,2] + r[0,2] >= -1
 mccormick3[0,3]: - y[0,3] - u[0,3] + r[0,3] >= -1
 mccormick3[0,4]: - y[0,4] - u[0,4] + r[0,4] >= -1
 mccormick3[0,5]: - y[0,5] - u[0,5] + r[0,5] >= -1
 mccormick3[1,0]: - y[1,0] - u[1,0] + r[1,0] >= -1
 mccormick3[1,2]: - y[1,2] - u[1,2] + r[1,2] >= -1
 mccormick3[1,3]: - y[1,3] - u[1,3] + r[1,3] >= -1
 mccormick3[2,0]: - y[2,0] - u[2,0] + r[2,0] >= -1
 mccormick3[2,1]: - y[2,1] - u[2,1] + r[2,1] >= -1
 mccormick3[2,3]: - y[2,3] - u[2,3] + r[2,3] >= -1
 mccormick3[2,4]: - y[2,4] - u[2,4] + r[2,4] >= -1
 mccormick3[2,5]: - y[2,5] - u[2,5] + r[2,5] >= -1
 mccormick3[3,0]: - y[3,0] - u[3,0] + r[3,0] >= -1
 mccormick3[3,1]: - y[3,1] - u[3,1] + r[3,1] >= -1
 mccormick3[3,2]: - y[3,2] - u[3,2] + r[3,2] >= -1
 mccormick3[3,5]: - y[3,5] - u[3,5] + r[3,5] >= -1
 mccormick3[4,0]: - y[4,0] - u[4,0] + r[4,0] >= -1
 mccormick3[4,2]: - y[4,2] - u[4,2] + r[4,2] >= -1
 mccormick3[4,5]: - y[4,5] - u[4,5] + r[4,5] >= -1
 mccormick3[5,0]: - y[5,0] - u[5,0] + r[5,0] >= -1
 mccormick3[5,2]: - y[5,2] - u[5,2] + r[5,2] >= -1
 mccormick3[5,3]: - y[5,3] - u[5,3] + r[5,3] >= -1
 mccormick3[5,4]: - y[5,4] - u[5,4] + r[5,4] >= -1
Bounds
Binaries
 y[0,1] y[0,2] y[0,3] y[0,4] y[0,5] y[1,0] y[1,2] y[1,3] y[2,0] y[2,1]
 y[2,3] y[2,4] y[2,5] y[3,0] y[3,1] y[3,2] y[3,5] y[4,0] y[4,2] y[4,5]
 y[5,0] y[5,2] y[5,3] y[5,4] u[0,1] u[0,2] u[0,3] u[0,4] u[0,5] u[1,0]
 u[1,2] u[1,3] u[2,0] u[2,1] u[2,3] u[2,4] u[2,5] u[3,0] u[3,1] u[3,2]
 u[3,5] u[4,0] u[4,2] u[4,5] u[5,0] u[5,2] u[5,3] u[5,4] r[0,1] r[0,2]
 r[0,3] r[0,4] r[0,5] r[1,0] r[1,2] r[1,3] r[2,0] r[2,1] r[2,3] r[2,4]
 r[2,5] r[3,0] r[3,1] r[3,2] r[3,5] r[4,0] r[4,2] r[4,5] r[5,0] r[5,2]
 r[5,3] r[5,4]
End
